# Solution for model MaxAlag(1)
# Objective value = 9
x(1,1) 1
x(2,1) 0
x(3,1) 0
x(4,1) 0
x(5,1) 1
x(6,1) 0
x(1,2) 0
x(1,4) 0
x(2,2) 0
x(2,4) 0
x(1,3) 0
x(2,3) 1
x(3,2) 0
x(3,3) 0
x(3,4) 1
x(4,2) 1
x(4,3) 0
x(4,4) 0
x(5,2) 0
x(5,3) 0
x(5,4) 0
x(6,2) 0
x(6,3) 1
x(6,4) 0
